83965.0
1929
1 2 3 6 7 8 10 11 12 13 19 20 21 22 23 24 25 27 29 30 32 34 37 38 39 40 41 42 44 45 46 47 48 49 50 51 54 55 56 57 58 59 60 62 64 65 67 68 73 74 75 76 79 80 81 82 84 85 86 87 88 89 90 91 92 93 95 96 98 99 